si scf input card with monkhorst pack automesh
&control
    calculation  = 'scf'
    prefix       = 'si'
    outdir       = './tmp'
    wf_collect   = .true. 
/

&system
    ibrav        = 2
    celldm(1)    = 10.26
    nat          = 2
    ntyp         = 1
    ecutwfc      = 16.0
    force_symmorphic = .true.
/

&electrons
    conv_thr =  1.0d-8
/

ATOMIC_SPECIES
 Si  28.086  Si.pz-vbc.UPF

ATOMIC_POSITIONS
 Si -0.125 -0.125 -0.125
 Si  0.125  0.125  0.125

K_POINTS (automatic)
 2 2 2 0 0 0
