 &control
    calculation = 'scf'
    restart_mode='from_scratch',
    prefix='silicon',
    tstress = .true.
    tprnfor = .true.
    pseudo_dir = './',
    outdir='./'
 /
 &system
    ibrav=  2, 
    celldm(1) =10.26, 
    nat=  2, 
    ntyp= 1,
    ecutwfc = 80.0,
 /
 &electrons
    diagonalization='david'
    mixing_mode = 'plain'
    mixing_beta = 0.7
    conv_thr =  1.0d-8
 /
ATOMIC_SPECIES
 Si  28.086  Si_tm_s_1.0.UPF
ATOMIC_POSITIONS
 Si  0.125  0.125  0.125
 Si -0.125 -0.125 -0.125
K_POINTS automatic
 8 8 8 1 1 1
